(define-fun inv2 ((x!0 Int)
 (x!1 Int)
 (x!2 Int)
 (x!3 Int)
 (x!4 Int)
 (x!5 Int)
 (x!6 Int)
 (x!7 Int)) Bool
  (let ((a!1 (+ x!1 x!2 x!3 (* (- 1) x!4) (* (- 1) x!5) (* (- 1) x!6)))
        (a!2 (not (>= (+ x!0 (* (- 1) x!3)) 1)))
        (a!3 (not (>= (+ x!2 (* (- 1) x!4)) 0)))
        (a!4 (not (<= (+ x!0 (* (- 1) x!1) (* (- 1) x!5) x!6) (- 1))))
        (a!5 (not (<= (+ x!0 (* (- 1) x!1) (* (- 1) x!5) x!6) 0)))
        (a!6 (not (>= (+ (* 2 x!0) x!3 (* (- 3) x!5)) 1)))
        (a!7 (not (<= (+ x!0 (* (- 1) x!2) x!4 (* (- 1) x!5)) (- 1))))
        (a!8 (not (<= (+ x!0 (* (- 1) x!3)) (- 1))))
        (a!9 (+ x!0 (* (- 3) x!2) (* (- 1) x!3) (* 3 x!4)))
        (a!10 (not (>= (+ x!0 (* (- 1) x!5)) 0)))
        (a!11 (not (<= (+ x!0 (* (- 1) x!3)) (- 3))))
        (a!12 (not (>= (+ x!0 (* (- 1) x!3)) (- 2))))
        (a!13 (not (>= (+ x!0 (* (- 1) x!1) (* (- 1) x!3) x!6) 0)))
        (a!14 (not (>= (+ x!0 (* (- 1) x!2) (* (- 1) x!3) x!4) 1)))
        (a!15 (not (>= (+ (* 2 x!0) (* (- 3) x!1) (* (- 2) x!3) (* 3 x!6)) 1)))
        (a!16 (not (>= (+ x!0 (* (- 2) x!1) (* (- 1) x!3) (* 2 x!6)) 1)))
        (a!17 (not (>= (+ x!0 (* (- 1) x!1) (* (- 1) x!3) x!6) (- 1))))
        (a!18 (not (<= (+ x!1 (* (- 1) x!6)) (- 1))))
        (a!19 (not (>= (+ x!2 (* (- 1) x!4)) (- 2))))
        (a!20 (not (>= (+ x!1 (* (- 1) x!6)) (- 2))))
        (a!21 (not (<= (+ x!0 (* (- 2) x!2) (* (- 1) x!3) (* 2 x!4)) (- 1))))
        (a!22 (not (<= (+ x!1 (* (- 1) x!6)) (- 3))))
        (a!23 (not (>= (+ x!0 (* (- 1) x!3)) (- 5))))
        (a!24 (+ x!0 (* (- 1) x!1) (* (- 1) x!2) (* (- 1) x!3) x!4 x!6))
        (a!25 (not (<= (+ x!0 (* (- 1) x!5)) 0)))
        (a!26 (not (>= (+ x!1 (* (- 1) x!6)) 0)))
        (a!27 (not (<= (+ x!2 (* (- 1) x!4)) (- 1))))
        (a!28 (not (<= (+ x!0 (* (- 1) x!2) (* (- 1) x!3) x!4) (- 1))))
        (a!29 (not (<= (+ x!0 (* (- 1) x!2) (* (- 1) x!3) x!4) (- 3))))
        (a!30 (not (>= (+ x!1 (* (- 1) x!6)) (- 1))))
        (a!31 (not (<= (+ x!1 (* (- 1) x!6)) (- 2))))
        (a!32 (not (>= (+ x!2 (* (- 1) x!4)) (- 1))))
        (a!33 (not (<= (+ x!0 (* (- 1) x!5)) (- 1))))
        (a!34 (not (>= (+ x!0 (* (- 1) x!3)) (- 6)))))
    (and (not (<= a!1 (- 1)))
         (or a!2 a!3)
         a!4
         (or a!5 a!6)
         a!7
         (or a!8 (not (<= a!9 (- 1))))
         (or a!10 a!11 (not (<= a!9 0)))
         (or a!12 a!13)
         a!14
         a!15
         (or a!16 a!17)
         (or a!10 a!18 a!19 a!20 a!21)
         (or a!22 a!23)
         (not (>= a!24 1))
         (or a!22 (not (>= a!1 1)) (not (<= a!24 (- 1))))
         (or a!25 (not (>= a!1 1)))
         (or a!26 a!27 a!28)
         (or a!10 a!27 a!20 a!29)
         (or a!10 a!30 a!18 (not (<= a!24 (- 1))))
         (or a!31 a!32)
         (or a!33 a!22 a!34))))

